c This is an instance of the exact track of PACE 2020 Challenge, see https://pacechallenge.org/2020/ 
c TYPE: infrastracture 
c ORIGIN: Open street maps 
c DESCRIPTION: Podzamcze (Poland): a road network downloaded from open street maps using osmnx Python package 
p tdp 113 164
1 113
1 12
2 22
2 53
2 7
2 55
3 24
3 54
3 21
4 55
4 5
4 28
5 28
6 52
6 17
6 22
7 22
8 26
9 14
9 45
10 45
10 14
11 16
11 32
11 23
11 31
12 19
13 47
13 109
13 18
14 29
15 30
16 20
17 22
17 37
18 36
18 25
18 47
19 21
19 40
20 54
21 24
22 55
25 46
25 50
25 29
26 112
27 42
27 32
27 40
28 46
28 52
29 36
29 30
30 50
31 83
31 33
31 108
32 57
33 108
33 84
33 34
34 85
34 107
34 44
35 62
36 51
36 112
37 111
37 102
38 78
38 79
38 74
39 104
39 70
39 75
40 78
41 43
42 43
44 88
44 105
46 47
46 49
47 52
48 49
49 50
51 101
51 112
54 111
56 57
57 58
59 63
59 60
59 65
60 62
60 101
60 61
61 103
61 102
62 63
63 64
64 65
64 67
65 66
65 67
66 67
66 104
67 68
68 69
68 105
69 105
69 71
70 76
70 77
72 73
72 104
72 77
73 74
73 78
74 104
75 76
75 106
76 107
76 77
80 84
80 81
80 83
81 85
81 82
81 103
83 100
84 93
84 100
85 92
85 98
86 87
86 90
86 89
87 88
87 90
88 103
88 89
89 90
90 91
91 95
91 96
91 94
92 95
92 94
92 96
93 98
93 97
93 99
94 95
95 96
97 98
97 99
98 99
101 109
102 109
105 106
106 107
107 108
110 111
